216
Lattice="21.847598515049697 0.0 0.0 0.0 21.847598515049697 0.0 0.0 0.0 21.847598515049697" Properties=species:S:1:pos:R:3 pbc="T T T"
Ar       2.59550856       1.75177011       8.10602207
Ar       4.52562859      11.61497289       8.05594208
Ar      14.37742483       0.76234380      13.44458028
Ar       7.35682465       2.16601423       1.69723018
Ar      17.10151184      21.81422084      16.65518143
Ar       3.34124554       0.45153298      18.11197205
Ar      16.89670819      21.41913414       6.26282033
Ar       3.16716609      14.48109483       2.71679216
Ar       1.62274971      16.99111431       0.35218032
Ar      14.32642518       1.77104566       4.00769185
Ar       2.69808675       5.57299339       4.20565659
Ar      21.55804298      11.27799417      11.71425106
Ar       1.20178212       8.38086102       7.05191076
Ar       2.78782584       3.75022995      18.24728747
Ar       0.01460151      21.82043883       1.56241299
Ar      18.13083114       6.83195460       4.14860653
Ar      18.91602961      19.74808322       8.64340793
Ar      19.19174540      21.25827058      19.93540163
Ar       3.15473186      12.73470300      21.68680966
Ar       5.38500637      16.48192825       0.78724022
Ar      14.35899206      14.94650870       6.72345512
Ar       6.15284826       5.52963694       2.49451373
Ar      14.20281119      20.14868339       4.12978367
Ar      13.17641677      13.83083122       1.44575193
Ar       4.16124639      17.72296879      19.22934998
Ar       8.47177162      14.28789741      13.98471111
Ar       5.29331270      21.04013908       6.61199117
Ar      13.14973144      18.00101050       1.45659458
Ar       3.08309982      10.61822964       3.71724426
Ar      20.70302005      17.05913515       7.12881479
Ar      12.33306866      18.58663455       6.75728382
Ar      10.80576573      17.26369403      20.60426888
Ar       5.52670005      12.67749823       4.72198384
Ar      18.12916272      11.98812872      17.71703907
Ar      21.14688218      13.91245057      14.52248012
Ar      17.32707517      19.89748120       2.73381655
Ar      11.54487889       8.53403935       3.66216281
Ar       6.58658393       0.87990383       9.34984569
Ar      21.04201126      18.36030708       3.79891686
Ar       9.77276084      18.36934032       2.25180880
Ar       9.41095245      18.31794785      14.05019083
Ar      18.83377201      15.31246450      19.95151725
Ar      20.01134902      21.73784879       4.96949075
Ar      20.92102496       3.96195063       3.38344611
Ar       4.64700612       3.30939893      11.78863043
Ar       6.53802100       8.03569485      17.67962048
Ar      15.02672675       5.11878579      20.33817550
Ar      18.77911031       1.36614405       1.17205921
Ar      19.82781551       8.69328240       1.05821707
Ar      16.23644271      11.69431882       7.23498869
Ar       8.22882741       1.01961224       5.87415983
Ar      13.06785287       3.34147740      15.60184970
Ar      15.30376238       8.17275446       5.82417767
Ar      13.27148475       8.77273760      19.53491001
Ar      19.89433130       4.54333101       0.19999278
Ar       4.86331949       2.48270305      20.72749842
Ar       9.63441955       8.60246791      19.45874658
Ar      12.31064042      14.29306487      15.32318639
Ar       4.01675285       6.32643670      20.50467261
Ar      12.48733412      11.35113546       7.62345444
Ar       7.87703399      13.88991017       1.50544924
Ar       9.29240052      16.99420555      17.36199973
Ar      14.55591410      15.81862651      20.97052519
Ar       6.50228352      20.98182083       3.44749988
Ar       5.57778354      15.93534589       7.75784591
Ar       7.69247171       5.19353970      12.74345495
Ar       0.78408281      20.34682534      20.13714149
Ar       0.92659393      19.95877989       6.91373821
Ar       2.65023882      17.08774593       9.13411900
Ar       5.85744002      18.90206751      12.99550203
Ar      17.53383512      17.89219891       5.94030533
Ar      15.30759191       0.88895624       0.24211902
Ar      16.55435562       4.10073489       1.65733470
Ar       1.80559401       5.02016301       0.92776685
Ar      20.15349250       1.38801242       8.05944230
Ar       9.45919997      21.28542385      11.24047606
Ar       7.30678633       5.25975251       7.58911118
Ar      16.84101987      17.47789361      10.79371220
Ar      20.22682342      12.70095634       8.54261202
Ar       3.35953868       5.55343952       7.78973146
Ar       1.80222298       1.15090997       4.43884927
Ar      12.72246725       5.77544871       1.37092959
Ar      18.87725406       3.86159725      10.05555653
Ar       8.24076754      14.92331965       5.47398334
Ar       0.71542585      12.75826958      18.77277774
Ar      18.21230809       6.13243534       7.47143039
Ar      10.73841166       3.02563311       2.89714699
Ar       5.33258340       2.94987555       4.89427540
Ar       9.46566038       6.43928679       1.16627472
Ar      20.44064821      11.82896932      21.49137936
Ar       0.47120379      12.32609785       2.38098292
Ar       0.17567444      11.43176578       5.66256864
Ar      12.22669405       5.97631268      11.07491423
Ar       5.41314831       7.81820232       5.52354187
Ar      15.99913395      18.84619803      17.86729400
Ar       7.12513841      11.74156955      16.13277987
Ar      16.97628301       0.92562579      10.60698997
Ar      19.19557700       9.53681496       7.36937198
Ar      21.08954824      15.75644352      11.54199846
Ar      20.29620936      15.39405279       1.61079238
Ar      10.80258210       0.30979782      14.85073324
Ar      21.65742495       7.63318563       3.71571834
Ar      21.80323606      19.12406984      10.59337584
Ar      21.66861625       4.57141950       6.95779046
Ar      11.62610865      15.76763316       4.01746722
Ar       7.25867028      20.58730200      16.37188308
Ar       9.70996971      16.98338118      10.62592914
Ar      19.31654952      14.31364205       5.18453345
Ar      12.75356598       1.64581355      10.43629207
Ar       3.09309161      20.35070390      11.10449356
Ar      12.43960323      19.53650989      12.37991977
Ar       9.29352894      21.51845805       0.41279438
Ar      14.44415535       1.52167460      18.44555757
Ar       5.48927758      17.00911099       4.15733545
Ar      17.76461218       3.11229673       4.93163586
Ar       6.77520358       0.62368338      13.06800779
Ar       1.04363577       4.86406737      10.78672649
Ar       9.42725082       3.38967713       9.51360300
Ar      17.27755125      19.88157930      13.40265730
Ar      11.94498166       0.69174851       7.03169464
Ar      18.69883081       5.39730207      13.32690579
Ar      16.63274914       3.57426671      16.00353711
Ar       8.85334405      18.55061759       5.90509065
Ar       8.96255705       5.85206912       4.56063189
Ar      20.57887664       4.98298190      16.60211738
Ar      11.84151026       4.33158104       6.83477479
Ar      17.59788241      10.29371288      11.01698904
Ar       9.45058124      13.34791907      18.63158144
Ar       6.02649610      15.69149404      11.61185359
Ar      16.68812616      15.85907586       2.64285772
Ar      11.39824877       7.98323065       8.32336087
Ar      14.55408231      13.17893504      11.21086232
Ar      17.56151128      15.13744979       7.92128510
Ar       2.48733712      13.41796855      10.62468158
Ar       2.45645679      14.27015018       6.59637264
Ar       9.46947340      11.38690633       9.91767630
Ar      13.30260122      17.10896079      10.19078370
Ar      18.18401589      16.27743897      14.56392395
Ar       2.79368092      16.59046780      13.15504007
Ar       6.17583730      15.47282079      16.49731708
Ar      20.19026777       7.59787452      11.02766806
Ar       8.69747479      10.20644590       6.45619860
Ar       0.45463082       1.36885485      11.23557439
Ar      14.85100787      20.00862692       9.21598511
Ar       2.22021557       7.42588060      16.75955834
Ar       4.01237491       6.66668206      11.87750330
Ar       0.51735404       5.74487813      19.77614276
Ar      12.33185949       2.50915485      21.65879399
Ar      21.67102052       1.85742736      19.20055060
Ar      14.95883648       3.86692968      12.09691620
Ar       1.74591285       4.49791547      14.26164591
Ar       7.98532360       4.82932438      19.52268244
Ar      10.75311805       3.33038189      12.74662644
Ar      11.68659896       5.61273157      19.52759945
Ar      20.12018253      18.45154940      18.25224045
Ar      16.41954702       6.72251495      10.29238895
Ar      14.31149541      10.49077122       0.93319934
Ar       4.98634776       9.29265845       0.29387713
Ar      10.66371997      14.26393364       7.89478095
Ar      11.81029210       7.49895337      15.98629591
Ar      15.15748037       3.81064523       8.13966524
Ar       4.68169263       9.41336651      14.25057395
Ar      14.12038507       9.23285037      10.24551022
Ar      21.62032772       7.44061882      14.03934319
Ar       9.20362704       4.31209253      16.05665684
Ar      14.31574387      11.55067013       4.43829730
Ar      14.65460198       7.95376658      13.49820942
Ar      15.53992489       9.39605593      16.57000035
Ar       6.68979006      11.20713012      19.74973881
Ar       3.24703868      10.14599136      11.04774454
Ar       5.13245593       5.05487649      15.24203787
Ar      10.26591247      11.90213091       3.62428993
Ar      16.48741795      13.04838249      14.63055058
Ar      21.40308282      17.96862224      14.27078367
Ar       6.68277996      14.92621769      19.89779387
Ar       6.36946119      12.27342889      12.04140929
Ar       6.75776993      19.03945641       9.20571646
Ar      16.73631155      18.58174884      21.37538944
Ar       3.22444771       0.96205917      14.48869672
Ar      18.93254525       1.64081641      13.31078194
Ar      14.42642423      16.70643705      13.84377606
Ar      18.32734370      11.35738616       3.01875597
Ar       6.52441549       9.10016984      10.24086794
Ar      13.73021635      20.19037206      15.77194501
Ar      20.81824730      21.27921125      15.24211152
Ar      18.96687472       9.82445162      14.60651107
Ar      14.60035059       4.93566721       4.70489245
Ar       3.96491596      20.69013883       0.00133123
Ar       6.36607930       2.21525087      17.29199072
Ar      10.69465925      10.60076614      16.62951834
Ar       2.17609987      15.62144249      16.88589111
Ar       2.90810595      19.58506216       3.15173415
Ar      21.13878813       9.32089540      18.15184207
Ar       1.71324837       8.87448702       0.90701256
Ar      12.99892158      10.82249749      14.07402059
Ar      12.88721124      20.29391833      20.58200047
Ar      13.17162507      12.20234871      18.67139937
Ar      17.08361516       9.70831648      20.71174742
Ar       3.30058098      13.32473677      14.00131935
Ar       3.26713863      19.28881635      15.65803445
Ar       0.65305433      10.57953229      14.95436687
Ar       8.26624350       8.46877626      14.81796662
Ar       7.74024747       9.63075510       2.65764932
Ar      18.16711617      13.64543297      11.59481295
Ar      17.59413421       6.96201528      18.35882114
Ar       3.83786221      11.68911202      17.71849214
Ar      12.91156730      17.11162163      17.69815635
Ar      11.29439520      14.16632359      11.89244814
Ar      17.05824463      13.00150624      21.77873644
Ar      20.08701944      18.76303275       0.33081733
Ar      10.07745952       2.02031950      18.65920750
Ar      18.03597916       3.36058309      19.10595329
Ar      16.25185908      15.18517914      17.58332406
Ar       7.36478795      19.04029592      20.63339399
Ar      10.69918206      11.07433865       0.29699197
Ar      10.65542646      20.03751756      18.06446956
